30 4
22 49 48 36 63 82 78 27 55 99 87 43 54 97 39 64 97 46 52 57 13 20 21 43 13 95 39 84 67 19
36 52 55 31 50 57 77 39 31 82 78 33 57 98 44 70 89 45 49 55 29 43 19 56 26 86 39 65 70 11
14 60 41 38 60 74 70 16 47 102 62 52 60 89 50 63 84 16 70 57 38 44 30 58 16 84 33 70 84 18
33 51 47 35 50 66 80 25 37 98 91 56 79 79 33 74 94 27 68 68 26 16 34 58 16 99 39 82 65 18
